tsp_instances/TSP50/instance62.tsp
NODE_COORD_SECTION
0 57 97
1 123 68
2 148 93
3 171 91
4 139 43
5 62 53
6 150 84
7 75 195
8 84 94
9 153 110
10 78 10
11 73 158
12 88 20
13 110 196
14 35 161
15 156 74
16 116 106
17 164 68
18 99 79
19 82 41
20 108 70
21 134 19
22 166 11
23 152 178
24 117 161
25 160 118
26 1 113
27 9 23
28 151 23
29 48 132
30 117 123
31 47 158
32 151 186
33 21 138
34 69 37
35 56 159
36 147 90
37 134 123
38 52 49
39 116 163
40 189 135
41 86 29
42 155 42
43 25 69
44 81 171
45 19 114
46 141 156
47 120 101
48 81 69
49 132 95
