tsp_instances/TSP50/instance62.opt.tour
TOUR_SECTION
1
30
46
27
34
15
32
36
12
45
8
14
40
25
47
33
24
41
26
10
38
31
17
48
50
3
37
7
4
16
18
43
23
29
22
5
2
21
19
9
49
20
42
13
11
35
6
39
28
44
-1